\ENCODING=ISO-8859-1
\Problem name: ilog.cplex

Maximize
 obj: 680 x(0)#0 + 824 x(1)#1 + 671 x(2)#2 + 836 x(3)#3 + 1154 x(4)#4
      + 751 x(5)#5 + 693 x(6)#6 + 915 x(7)#7 + 500 x(8)#8 + 473 x(9)#9
      + 832 x(10)#10 + 704 x(11)#11 + 1075 x(12)#12 + 947 x(13)#13
      + 453 x(14)#14 + 948 x(15)#15 + 646 x(16)#16 + 872 x(17)#17
      + 618 x(18)#18 + 991 x(19)#19 + 552 x(20)#20 + 710 x(21)#21
      + 558 x(22)#22 + 885 x(23)#23 + 974 x(24)#24 + 653 x(25)#25
      + 459 x(26)#26 + 760 x(27)#27 + 859 x(28)#28 + 1002 x(29)#29
      + 1021 x(30)#30 + 620 x(31)#31 + 764 x(32)#32 + 649 x(33)#33
      + 790 x(34)#34 + 867 x(35)#35 + 557 x(36)#36 + 818 x(37)#37
      + 595 x(38)#38 + 696 x(39)#39 + 697 x(40)#40 + 518 x(41)#41
      + 571 x(42)#42 + 551 x(43)#43 + 549 x(44)#44 + 452 x(45)#45
      + 705 x(46)#46 + 532 x(47)#47 + 1048 x(48)#48 + 537 x(49)#49
      + 675 x(50)#50 + 734 x(51)#51 + 680 x(52)#52 + 907 x(53)#53
      + 441 x(54)#54 + 932 x(55)#55 + 1071 x(56)#56 + 564 x(57)#57
      + 667 x(58)#58 + 1081 x(59)#59 + 728 x(60)#60 + 613 x(61)#61
      + 718 x(62)#62 + 815 x(63)#63 + 531 x(64)#64 + 687 x(65)#65
      + 383 x(66)#66 + 598 x(67)#67 + 412 x(68)#68 + 731 x(69)#69
      + 434 x(70)#70 + 523 x(71)#71 + 596 x(72)#72 + 641 x(73)#73
      + 814 x(74)#74 + 581 x(75)#75 + 872 x(76)#76 + 849 x(77)#77
      + 677 x(78)#78 + 595 x(79)#79 + 817 x(80)#80 + 731 x(81)#81
      + 803 x(82)#82 + 659 x(83)#83 + 666 x(84)#84 + 1087 x(85)#85
      + 889 x(86)#86 + 569 x(87)#87 + 583 x(88)#88 + 894 x(89)#89
      + 919 x(90)#90 + 989 x(91)#91 + 755 x(92)#92 + 647 x(93)#93
      + 1125 x(94)#94 + 700 x(95)#95 + 422 x(96)#96 + 1000 x(97)#97
      + 789 x(98)#98 + 752 x(99)#99
Subject To
 c1:  772 x(0)#0 + 91 x(1)#1 + 191 x(2)#2 + 54 x(3)#3 + 503 x(4)#4 + 526 x(5)#5
      + 299 x(6)#6 + 598 x(7)#7 + 444 x(8)#8 + 850 x(9)#9 + 318 x(10)#10
      + 464 x(11)#11 + 625 x(12)#12 + 297 x(13)#13 + 37 x(14)#14 + 627 x(15)#15
      + 567 x(16)#16 + 823 x(17)#17 + 393 x(18)#18 + 996 x(19)#19
      + 680 x(20)#20 + 819 x(21)#21 + 905 x(22)#22 + 403 x(23)#23
      + 611 x(24)#24 + 794 x(25)#25 + 758 x(26)#26 + 63 x(27)#27 + 687 x(28)#28
      + 740 x(29)#29 + 720 x(30)#30 + 438 x(31)#31 + 681 x(32)#32
      + 795 x(33)#33 + 619 x(34)#34 + 522 x(35)#35 + 198 x(36)#36 + 87 x(37)#37
      + 185 x(38)#38 + 109 x(39)#39 + 70 x(40)#40 + 67 x(41)#41 + 46 x(42)#42
      + 258 x(43)#43 + 678 x(44)#44 + 261 x(45)#45 + 791 x(46)#46 + 33 x(47)#47
      + 796 x(48)#48 + 400 x(49)#49 + 88 x(50)#50 + 513 x(51)#51 + 201 x(52)#52
      + 162 x(53)#53 + 471 x(54)#54 + 506 x(55)#55 + 961 x(56)#56
      + 677 x(57)#57 + 803 x(58)#58 + 882 x(59)#59 + 9 x(60)#60 + 309 x(61)#61
      + 924 x(62)#62 + 67 x(63)#63 + 700 x(64)#64 + 621 x(65)#65 + 121 x(66)#66
      + 222 x(67)#67 + 14 x(68)#68 + 778 x(69)#69 + 236 x(70)#70 + 434 x(71)#71
      + 53 x(72)#72 + 13 x(73)#73 + 55 x(74)#74 + 83 x(75)#75 + 330 x(76)#76
      + 41 x(77)#77 + 82 x(78)#78 + 419 x(79)#79 + 412 x(80)#80 + 545 x(81)#81
      + 828 x(82)#82 + 26 x(83)#83 + 959 x(84)#84 + 103 x(85)#85 + 925 x(86)#86
      + 596 x(87)#87 + 806 x(88)#88 + 683 x(89)#89 + 828 x(90)#90
      + 862 x(91)#91 + 822 x(92)#92 + 378 x(93)#93 + 646 x(94)#94 + 97 x(95)#95
      + 630 x(96)#96 + 962 x(97)#97 + 921 x(98)#98 + 482 x(99)#99 <= 35231
 c2:  719 x(0)#0 + 942 x(1)#1 + 236 x(2)#2 + 855 x(3)#3 + 960 x(4)#4
      + 255 x(5)#5 + 135 x(6)#6 + 506 x(7)#7 + 942 x(8)#8 + 989 x(9)#9
      + 89 x(10)#10 + 139 x(11)#11 + 325 x(12)#12 + 576 x(13)#13 + 781 x(14)#14
      + 78 x(15)#15 + 178 x(16)#16 + 881 x(17)#17 + 108 x(18)#18 + 442 x(19)#19
      + 444 x(20)#20 + 158 x(21)#21 + 257 x(22)#22 + 333 x(23)#23 + 22 x(24)#24
      + 882 x(25)#25 + 39 x(26)#26 + 288 x(27)#27 + 725 x(28)#28 + 833 x(29)#29
      + 435 x(30)#30 + 294 x(31)#31 + 689 x(32)#32 + 252 x(33)#33 + 80 x(34)#34
      + 627 x(35)#35 + 46 x(36)#36 + 985 x(37)#37 + 806 x(38)#38 + 686 x(39)#39
      + 944 x(40)#40 + 392 x(41)#41 + 98 x(42)#42 + 823 x(43)#43 + 369 x(44)#44
      + 901 x(45)#45 + 148 x(46)#46 + 807 x(47)#47 + 386 x(48)#48
      + 440 x(49)#49 + 508 x(50)#50 + 322 x(51)#51 + 322 x(52)#52
      + 534 x(53)#53 + 241 x(54)#54 + 981 x(55)#55 + 809 x(56)#56
      + 693 x(57)#57 + 62 x(58)#58 + 839 x(59)#59 + 163 x(60)#60 + 498 x(61)#61
      + 878 x(62)#62 + 937 x(63)#63 + 373 x(64)#64 + 851 x(65)#65
      + 849 x(66)#66 + 750 x(67)#67 + 257 x(68)#68 + 108 x(69)#69
      + 390 x(70)#70 + 73 x(71)#71 + 74 x(72)#72 + 938 x(73)#73 + 278 x(74)#74
      + 776 x(75)#75 + 831 x(76)#76 + 409 x(77)#77 + 393 x(78)#78
      + 476 x(79)#79 + 415 x(80)#80 + 589 x(81)#81 + 724 x(82)#82
      + 421 x(83)#83 + 416 x(84)#84 + 258 x(85)#85 + 966 x(86)#86
      + 624 x(87)#87 + 455 x(88)#88 + 852 x(89)#89 + 861 x(90)#90
      + 696 x(91)#91 + 807 x(92)#92 + 774 x(93)#93 + 963 x(94)#94
      + 357 x(95)#95 + 522 x(96)#96 + 284 x(97)#97 + 967 x(98)#98
      + 431 x(99)#99 <= 39240
 c3:  529 x(0)#0 + 615 x(1)#1 + 165 x(2)#2 + 545 x(3)#3 + 371 x(4)#4
      + 484 x(5)#5 + 981 x(6)#6 + 582 x(7)#7 + 687 x(8)#8 + 307 x(9)#9
      + 476 x(10)#10 + 636 x(11)#11 + 937 x(12)#12 + 71 x(13)#13 + 309 x(14)#14
      + 971 x(15)#15 + 550 x(16)#16 + 99 x(17)#17 + 109 x(18)#18 + 900 x(19)#19
      + 537 x(20)#20 + 799 x(21)#21 + 922 x(22)#22 + 777 x(23)#23
      + 513 x(24)#24 + 725 x(25)#25 + 897 x(26)#26 + 553 x(27)#27
      + 960 x(28)#28 + 494 x(29)#29 + 273 x(30)#30 + 624 x(31)#31
      + 180 x(32)#32 + 515 x(33)#33 + 211 x(34)#34 + 807 x(35)#35
      + 483 x(36)#36 + 821 x(37)#37 + 366 x(38)#38 + 729 x(39)#39
      + 369 x(40)#40 + 355 x(41)#41 + 852 x(42)#42 + 505 x(43)#43
      + 697 x(44)#44 + 335 x(45)#45 + 623 x(46)#46 + 644 x(47)#47 + 77 x(48)#48
      + 304 x(49)#49 + 385 x(50)#50 + 810 x(51)#51 + 5 x(52)#52 + 141 x(53)#53
      + 149 x(54)#54 + 748 x(55)#55 + 57 x(56)#56 + 270 x(57)#57 + 153 x(58)#58
      + 884 x(59)#59 + 119 x(60)#60 + 594 x(61)#61 + 952 x(62)#62
      + 487 x(63)#63 + 755 x(64)#64 + 599 x(65)#65 + 106 x(66)#66
      + 620 x(67)#67 + 594 x(68)#68 + 142 x(69)#69 + 546 x(70)#70
      + 753 x(71)#71 + 997 x(72)#72 + 562 x(73)#73 + 546 x(74)#74
      + 354 x(75)#75 + 278 x(76)#76 + 156 x(77)#77 + 673 x(78)#78 + 88 x(79)#79
      + 499 x(80)#80 + 209 x(81)#81 + 464 x(82)#82 + 947 x(83)#83
      + 813 x(84)#84 + 886 x(85)#85 + 560 x(86)#86 + 943 x(87)#87
      + 904 x(88)#88 + 577 x(89)#89 + 235 x(90)#90 + 840 x(91)#91
      + 432 x(92)#92 + 399 x(93)#93 + 836 x(94)#94 + 926 x(95)#95
      + 255 x(96)#96 + 980 x(97)#97 + 920 x(98)#98 + 174 x(99)#99 <= 40195
 c4:  729 x(0)#0 + 806 x(1)#1 + 209 x(2)#2 + 630 x(3)#3 + 380 x(4)#4
      + 488 x(5)#5 + 6 x(6)#6 + 350 x(7)#7 + 32 x(8)#8 + 319 x(9)#9
      + 884 x(10)#10 + 463 x(11)#11 + 546 x(12)#12 + 703 x(13)#13
      + 819 x(14)#14 + 29 x(15)#15 + 288 x(16)#16 + 979 x(17)#17 + 49 x(18)#18
      + 212 x(19)#19 + 204 x(20)#20 + 598 x(21)#21 + 375 x(22)#22
      + 731 x(23)#23 + 705 x(24)#24 + 53 x(25)#25 + 173 x(26)#26 + 51 x(27)#27
      + 599 x(28)#28 + 17 x(29)#29 + 989 x(30)#30 + 950 x(31)#31 + 982 x(32)#32
      + 805 x(33)#33 + 226 x(34)#34 + 312 x(35)#35 + 316 x(36)#36
      + 780 x(37)#37 + 480 x(38)#38 + 718 x(39)#39 + 151 x(40)#40
      + 703 x(41)#41 + 792 x(42)#42 + 601 x(43)#43 + 97 x(44)#44 + 385 x(45)#45
      + 418 x(46)#46 + 833 x(47)#47 + 526 x(48)#48 + 299 x(49)#49
      + 929 x(50)#50 + 913 x(51)#51 + 335 x(52)#52 + 607 x(53)#53 + 68 x(54)#54
      + 231 x(55)#55 + 820 x(56)#56 + 709 x(57)#57 + 786 x(58)#58
      + 719 x(59)#59 + 163 x(60)#60 + 390 x(61)#61 + 915 x(62)#62
      + 556 x(63)#63 + 755 x(64)#64 + 836 x(65)#65 + 46 x(66)#66 + 262 x(67)#67
      + 455 x(68)#68 + 566 x(69)#69 + 247 x(70)#70 + 579 x(71)#71
      + 203 x(72)#72 + 125 x(73)#73 + 45 x(74)#74 + 614 x(75)#75 + 256 x(76)#76
      + 480 x(77)#77 + 492 x(78)#78 + 31 x(79)#79 + 1000 x(80)#80 + 55 x(81)#81
      + 87 x(82)#82 + 311 x(83)#83 + 360 x(84)#84 + 889 x(85)#85 + 75 x(86)#86
      + 370 x(87)#87 + 424 x(88)#88 + 382 x(89)#89 + 684 x(90)#90
      + 762 x(91)#91 + 548 x(92)#92 + 564 x(93)#93 + 792 x(94)#94
      + 960 x(95)#95 + 287 x(96)#96 + 995 x(97)#97 + 301 x(98)#98
      + 618 x(99)#99 <= 36290
 c5:  508 x(0)#0 + 759 x(1)#1 + 548 x(2)#2 + 875 x(3)#3 + 989 x(4)#4
      + 568 x(5)#5 + 706 x(6)#6 + 53 x(7)#7 + 816 x(8)#8 + 459 x(9)#9
      + 770 x(10)#10 + 119 x(11)#11 + 717 x(12)#12 + 230 x(13)#13
      + 364 x(14)#14 + 950 x(15)#15 + 495 x(16)#16 + 750 x(17)#17
      + 652 x(18)#18 + 5 x(19)#19 + 541 x(20)#20 + 489 x(21)#21 + 218 x(22)#22
      + 221 x(23)#23 + 736 x(24)#24 + 786 x(25)#25 + 749 x(26)#26
      + 186 x(27)#27 + 123 x(28)#28 + 544 x(29)#29 + 735 x(30)#30 + 27 x(31)#31
      + 36 x(32)#32 + 126 x(33)#33 + 654 x(34)#34 + 911 x(35)#35 + 684 x(36)#36
      + 416 x(37)#37 + 720 x(38)#38 + 216 x(39)#39 + 791 x(40)#40
      + 346 x(41)#41 + 476 x(42)#42 + 953 x(43)#43 + 756 x(44)#44
      + 137 x(45)#45 + 408 x(46)#46 + 583 x(47)#47 + 717 x(48)#48
      + 349 x(49)#49 + 86 x(50)#50 + 888 x(51)#51 + 732 x(52)#52 + 917 x(53)#53
      + 389 x(54)#54 + 878 x(55)#55 + 705 x(56)#56 + 321 x(57)#57
      + 641 x(58)#58 + 690 x(59)#59 + 645 x(60)#60 + 918 x(61)#61
      + 203 x(62)#62 + 112 x(63)#63 + 589 x(64)#64 + 916 x(65)#65
      + 102 x(66)#66 + 815 x(67)#67 + 768 x(68)#68 + 758 x(69)#69
      + 142 x(70)#70 + 605 x(71)#71 + 119 x(72)#72 + 182 x(73)#73
      + 865 x(74)#74 + 517 x(75)#75 + 39 x(76)#76 + 791 x(77)#77 + 818 x(78)#78
      + 936 x(79)#79 + 920 x(80)#80 + 327 x(81)#81 + 162 x(82)#82 + 59 x(83)#83
      + 395 x(84)#84 + 651 x(85)#85 + 845 x(86)#86 + 494 x(87)#87
      + 886 x(88)#88 + 520 x(89)#89 + 590 x(90)#90 + 680 x(91)#91
      + 775 x(92)#92 + 946 x(93)#93 + 514 x(94)#94 + 707 x(95)#95
      + 177 x(96)#96 + 696 x(97)#97 + 156 x(98)#98 + 611 x(99)#99 <= 40624
 c6:  793 x(0)#0 + 545 x(1)#1 + 678 x(2)#2 + 470 x(3)#3 + 887 x(4)#4
      + 327 x(5)#5 + 458 x(6)#6 + 851 x(7)#7 + 22 x(8)#8 + 840 x(9)#9
      + 772 x(10)#10 + 714 x(11)#11 + 922 x(12)#12 + 644 x(13)#13
      + 160 x(14)#14 + 990 x(15)#15 + 236 x(16)#16 + 378 x(17)#17
      + 578 x(18)#18 + 37 x(19)#19 + 95 x(20)#20 + 752 x(21)#21 + 977 x(22)#22
      + 564 x(23)#23 + 39 x(24)#24 + 862 x(25)#25 + 515 x(26)#26 + 618 x(27)#27
      + 959 x(28)#28 + 282 x(29)#29 + 648 x(30)#30 + 915 x(31)#31
      + 383 x(32)#32 + 666 x(33)#33 + 142 x(34)#34 + 33 x(35)#35 + 479 x(36)#36
      + 388 x(37)#37 + 503 x(38)#38 + 122 x(39)#39 + 767 x(40)#40
      + 405 x(41)#41 + 627 x(42)#42 + 597 x(43)#43 + 762 x(44)#44
      + 274 x(45)#45 + 855 x(46)#46 + 441 x(47)#47 + 798 x(48)#48
      + 954 x(49)#49 + 763 x(50)#50 + 219 x(51)#51 + 908 x(52)#52
      + 632 x(53)#53 + 221 x(54)#54 + 270 x(55)#55 + 271 x(56)#56
      + 370 x(57)#57 + 239 x(58)#58 + 935 x(59)#59 + 87 x(60)#60 + 579 x(61)#61
      + 833 x(62)#62 + 167 x(63)#63 + 235 x(64)#64 + 944 x(65)#65
      + 766 x(66)#66 + 264 x(67)#67 + 128 x(68)#68 + 829 x(69)#69
      + 511 x(70)#70 + 92 x(71)#71 + 643 x(72)#72 + 469 x(73)#73 + 322 x(74)#74
      + 8 x(75)#75 + 168 x(76)#76 + 747 x(77)#77 + 592 x(78)#78 + 300 x(79)#79
      + 697 x(80)#80 + 636 x(81)#81 + 921 x(82)#82 + 728 x(83)#83 + 53 x(84)#84
      + 401 x(85)#85 + 696 x(86)#86 + 389 x(87)#87 + 374 x(88)#88
      + 269 x(89)#89 + 366 x(90)#90 + 648 x(91)#91 + 865 x(92)#92
      + 738 x(93)#93 + 536 x(94)#94 + 167 x(95)#95 + 115 x(96)#96
      + 300 x(97)#97 + 664 x(98)#98 + 33 x(99)#99 <= 38124
 c7:  56 x(0)#0 + 827 x(1)#1 + 795 x(2)#2 + 880 x(3)#3 + 323 x(4)#4
      + 953 x(5)#5 + 743 x(6)#6 + 813 x(7)#7 + 556 x(8)#8 + 143 x(9)#9
      + 907 x(10)#10 + 47 x(11)#11 + 317 x(12)#12 + 847 x(13)#13 + 452 x(14)#14
      + 995 x(15)#15 + 483 x(16)#16 + 10 x(17)#17 + 579 x(18)#18 + 571 x(19)#19
      + 557 x(20)#20 + 63 x(21)#21 + 688 x(22)#22 + 494 x(23)#23 + 821 x(24)#24
      + 232 x(25)#25 + 76 x(26)#26 + 611 x(27)#27 + 865 x(28)#28 + 661 x(29)#29
      + 290 x(30)#30 + 29 x(31)#31 + 945 x(32)#32 + 413 x(33)#33 + 859 x(34)#34
      + 197 x(35)#35 + 318 x(36)#36 + 408 x(37)#37 + 587 x(38)#38
      + 387 x(39)#39 + 567 x(40)#40 + 557 x(41)#41 + 367 x(42)#42
      + 290 x(43)#43 + 187 x(44)#44 + 412 x(45)#45 + 171 x(46)#46
      + 126 x(47)#47 + 837 x(48)#48 + 499 x(49)#49 + 6 x(50)#50 + 590 x(51)#51
      + 634 x(52)#52 + 425 x(53)#53 + 340 x(54)#54 + 490 x(55)#55
      + 940 x(56)#56 + 85 x(57)#57 + 39 x(58)#58 + 483 x(59)#59 + 860 x(60)#60
      + 52 x(61)#61 + 748 x(62)#62 + 381 x(63)#63 + 394 x(64)#64 + 99 x(65)#65
      + 6 x(66)#66 + 117 x(67)#67 + 212 x(68)#68 + 859 x(69)#69 + 502 x(70)#70
      + 314 x(71)#71 + 992 x(72)#72 + 638 x(73)#73 + 573 x(74)#74
      + 925 x(75)#75 + 369 x(76)#76 + 90 x(77)#77 + 7 x(78)#78 + 504 x(79)#79
      + 443 x(80)#80 + 157 x(81)#81 + 448 x(82)#82 + 816 x(83)#83
      + 191 x(84)#84 + 659 x(85)#85 + 179 x(86)#86 + 554 x(87)#87
      + 357 x(88)#88 + 31 x(89)#89 + 735 x(90)#90 + 895 x(91)#91 + 853 x(92)#92
      + 432 x(93)#93 + 328 x(94)#94 + 423 x(95)#95 + 459 x(96)#96
      + 254 x(97)#97 + 806 x(98)#98 + 302 x(99)#99 <= 35105
 c8:  662 x(0)#0 + 425 x(1)#1 + 479 x(2)#2 + 921 x(3)#3 + 847 x(4)#4
      + 48 x(5)#5 + 85 x(6)#6 + 279 x(7)#7 + 233 x(8)#8 + 42 x(9)#9
      + 768 x(10)#10 + 720 x(11)#11 + 85 x(12)#12 + 359 x(13)#13 + 34 x(14)#14
      + 207 x(15)#15 + 187 x(16)#16 + 3 x(17)#17 + 101 x(18)#18 + 887 x(19)#19
      + 432 x(20)#20 + 200 x(21)#21 + 508 x(22)#22 + 318 x(23)#23
      + 130 x(24)#24 + 161 x(25)#25 + 124 x(26)#26 + 236 x(27)#27
      + 884 x(28)#28 + 958 x(29)#29 + 784 x(30)#30 + 546 x(31)#31
      + 626 x(32)#32 + 698 x(33)#33 + 623 x(34)#34 + 746 x(35)#35
      + 836 x(36)#36 + 542 x(37)#37 + 263 x(38)#38 + 970 x(39)#39
      + 986 x(40)#40 + 595 x(41)#41 + 909 x(42)#42 + 576 x(43)#43
      + 700 x(44)#44 + 962 x(45)#45 + 228 x(46)#46 + 853 x(47)#47
      + 350 x(48)#48 + 636 x(49)#49 + 721 x(50)#50 + 129 x(51)#51
      + 981 x(52)#52 + 432 x(53)#53 + 968 x(54)#54 + 586 x(55)#55
      + 285 x(56)#56 + 536 x(57)#57 + 416 x(58)#58 + 644 x(59)#59
      + 870 x(60)#60 + 378 x(61)#61 + 39 x(62)#62 + 695 x(63)#63 + 138 x(64)#64
      + 671 x(65)#65 + 222 x(66)#66 + 299 x(67)#67 + 351 x(68)#68
      + 350 x(69)#69 + 194 x(70)#70 + 509 x(71)#71 + 908 x(72)#72 + 14 x(73)#73
      + 1000 x(74)#74 + 382 x(75)#75 + 750 x(76)#76 + 677 x(77)#77
      + 989 x(78)#78 + 432 x(79)#79 + 784 x(80)#80 + 595 x(81)#81
      + 464 x(82)#82 + 664 x(83)#83 + 740 x(84)#84 + 654 x(85)#85
      + 217 x(86)#86 + 585 x(87)#87 + 53 x(88)#88 + 252 x(89)#89 + 830 x(90)#90
      + 911 x(91)#91 + 535 x(92)#92 + 466 x(93)#93 + 393 x(94)#94
      + 726 x(95)#95 + 69 x(96)#96 + 967 x(97)#97 + 675 x(98)#98 + 838 x(99)#99
      <= 38802
 c9:  8 x(0)#0 + 560 x(1)#1 + 767 x(2)#2 + 231 x(3)#3 + 352 x(4)#4 + 426 x(5)#5
      + 254 x(6)#6 + 660 x(7)#7 + 317 x(8)#8 + 697 x(9)#9 + 6 x(10)#10
      + 449 x(11)#11 + 362 x(12)#12 + 858 x(13)#13 + 170 x(14)#14
      + 852 x(15)#15 + 670 x(16)#16 + 274 x(17)#17 + 855 x(18)#18
      + 869 x(19)#19 + 634 x(20)#20 + 174 x(21)#21 + 172 x(22)#22 + 45 x(23)#23
      + 993 x(24)#24 + 727 x(25)#25 + 167 x(26)#26 + 743 x(27)#27
      + 827 x(28)#28 + 915 x(29)#29 + 263 x(30)#30 + 57 x(31)#31 + 344 x(32)#32
      + 973 x(33)#33 + 61 x(34)#34 + 66 x(35)#35 + 973 x(36)#36 + 431 x(37)#37
      + 2 x(38)#38 + 136 x(39)#39 + 472 x(40)#40 + 301 x(41)#41 + 231 x(42)#42
      + 536 x(43)#43 + 562 x(44)#44 + 337 x(45)#45 + 326 x(46)#46 + 29 x(47)#47
      + 114 x(48)#48 + 325 x(49)#49 + 516 x(50)#50 + 276 x(51)#51
      + 140 x(52)#52 + 333 x(53)#53 + 827 x(54)#54 + 797 x(55)#55
      + 275 x(56)#56 + 912 x(57)#57 + 713 x(58)#58 + 906 x(59)#59
      + 196 x(60)#60 + 242 x(61)#61 + 378 x(62)#62 + 701 x(63)#63
      + 814 x(64)#64 + 244 x(65)#65 + 958 x(66)#66 + 604 x(67)#67
      + 498 x(68)#68 + 726 x(69)#69 + 986 x(70)#70 + 819 x(71)#71
      + 207 x(72)#72 + 249 x(73)#73 + 647 x(74)#74 + 453 x(75)#75
      + 170 x(76)#76 + 575 x(77)#77 + 533 x(78)#78 + 274 x(79)#79
      + 712 x(80)#80 + 783 x(81)#81 + 558 x(82)#82 + 544 x(83)#83
      + 219 x(84)#84 + 929 x(85)#85 + 362 x(86)#86 + 361 x(87)#87
      + 566 x(88)#88 + 326 x(89)#89 + 878 x(90)#90 + 736 x(91)#91
      + 728 x(92)#92 + 309 x(93)#93 + 827 x(94)#94 + 651 x(95)#95
      + 634 x(96)#96 + 277 x(97)#97 + 368 x(98)#98 + 190 x(99)#99 <= 36375
 c10: 265 x(0)#0 + 246 x(1)#1 + 831 x(2)#2 + 622 x(3)#3 + 970 x(4)#4
      + 158 x(5)#5 + 504 x(6)#6 + 480 x(7)#7 + 273 x(8)#8 + 52 x(9)#9
      + 271 x(10)#10 + 341 x(11)#11 + 952 x(12)#12 + 478 x(13)#13
      + 142 x(14)#14 + 767 x(15)#15 + 56 x(16)#16 + 563 x(17)#17 + 923 x(18)#18
      + 208 x(19)#19 + 344 x(20)#20 + 360 x(21)#21 + 7 x(22)#22 + 879 x(23)#23
      + 816 x(24)#24 + 715 x(25)#25 + 300 x(26)#26 + 833 x(27)#27
      + 404 x(28)#28 + 529 x(29)#29 + 395 x(30)#30 + 368 x(31)#31
      + 377 x(32)#32 + 792 x(33)#33 + 504 x(34)#34 + 503 x(35)#35
      + 434 x(36)#36 + 891 x(37)#37 + 239 x(38)#38 + 329 x(39)#39
      + 567 x(40)#40 + 649 x(41)#41 + 900 x(42)#42 + 29 x(43)#43 + 314 x(44)#44
      + 29 x(45)#45 + 155 x(46)#46 + 98 x(47)#47 + 977 x(48)#48 + 3 x(49)#49
      + 835 x(50)#50 + 714 x(51)#51 + 171 x(52)#52 + 119 x(53)#53
      + 476 x(54)#54 + 808 x(55)#55 + 923 x(56)#56 + 389 x(57)#57
      + 594 x(58)#58 + 384 x(59)#59 + 717 x(60)#60 + 8 x(61)#61 + 713 x(62)#62
      + 203 x(63)#63 + 547 x(64)#64 + 331 x(65)#65 + 391 x(66)#66
      + 863 x(67)#67 + 653 x(68)#68 + 97 x(69)#69 + 399 x(70)#70 + 536 x(71)#71
      + 285 x(72)#72 + 413 x(73)#73 + 195 x(74)#74 + 809 x(75)#75
      + 735 x(76)#76 + 65 x(77)#77 + 982 x(78)#78 + 49 x(79)#79 + 312 x(80)#80
      + 416 x(81)#81 + 309 x(82)#82 + 534 x(83)#83 + 901 x(84)#84
      + 562 x(85)#85 + 156 x(86)#86 + 122 x(87)#87 + 817 x(88)#88
      + 962 x(89)#89 + 160 x(90)#90 + 880 x(91)#91 + 315 x(92)#92
      + 736 x(93)#93 + 720 x(94)#94 + 189 x(95)#95 + 21 x(96)#96 + 768 x(97)#97
      + 986 x(98)#98 + 542 x(99)#99 <= 35741
Bounds
 0 <= x(0)#0 <= 1
 0 <= x(1)#1 <= 1
 0 <= x(2)#2 <= 1
 0 <= x(3)#3 <= 1
 0 <= x(4)#4 <= 1
 0 <= x(5)#5 <= 1
 0 <= x(6)#6 <= 1
 0 <= x(7)#7 <= 1
 0 <= x(8)#8 <= 1
 0 <= x(9)#9 <= 1
 0 <= x(10)#10 <= 1
 0 <= x(11)#11 <= 1
 0 <= x(12)#12 <= 1
 0 <= x(13)#13 <= 1
 0 <= x(14)#14 <= 1
 0 <= x(15)#15 <= 1
 0 <= x(16)#16 <= 1
 0 <= x(17)#17 <= 1
 0 <= x(18)#18 <= 1
 0 <= x(19)#19 <= 1
 0 <= x(20)#20 <= 1
 0 <= x(21)#21 <= 1
 0 <= x(22)#22 <= 1
 0 <= x(23)#23 <= 1
 0 <= x(24)#24 <= 1
 0 <= x(25)#25 <= 1
 0 <= x(26)#26 <= 1
 0 <= x(27)#27 <= 1
 0 <= x(28)#28 <= 1
 0 <= x(29)#29 <= 1
 0 <= x(30)#30 <= 1
 0 <= x(31)#31 <= 1
 0 <= x(32)#32 <= 1
 0 <= x(33)#33 <= 1
 0 <= x(34)#34 <= 1
 0 <= x(35)#35 <= 1
 0 <= x(36)#36 <= 1
 0 <= x(37)#37 <= 1
 0 <= x(38)#38 <= 1
 0 <= x(39)#39 <= 1
 0 <= x(40)#40 <= 1
 0 <= x(41)#41 <= 1
 0 <= x(42)#42 <= 1
 0 <= x(43)#43 <= 1
 0 <= x(44)#44 <= 1
 0 <= x(45)#45 <= 1
 0 <= x(46)#46 <= 1
 0 <= x(47)#47 <= 1
 0 <= x(48)#48 <= 1
 0 <= x(49)#49 <= 1
 0 <= x(50)#50 <= 1
 0 <= x(51)#51 <= 1
 0 <= x(52)#52 <= 1
 0 <= x(53)#53 <= 1
 0 <= x(54)#54 <= 1
 0 <= x(55)#55 <= 1
 0 <= x(56)#56 <= 1
 0 <= x(57)#57 <= 1
 0 <= x(58)#58 <= 1
 0 <= x(59)#59 <= 1
 0 <= x(60)#60 <= 1
 0 <= x(61)#61 <= 1
 0 <= x(62)#62 <= 1
 0 <= x(63)#63 <= 1
 0 <= x(64)#64 <= 1
 0 <= x(65)#65 <= 1
 0 <= x(66)#66 <= 1
 0 <= x(67)#67 <= 1
 0 <= x(68)#68 <= 1
 0 <= x(69)#69 <= 1
 0 <= x(70)#70 <= 1
 0 <= x(71)#71 <= 1
 0 <= x(72)#72 <= 1
 0 <= x(73)#73 <= 1
 0 <= x(74)#74 <= 1
 0 <= x(75)#75 <= 1
 0 <= x(76)#76 <= 1
 0 <= x(77)#77 <= 1
 0 <= x(78)#78 <= 1
 0 <= x(79)#79 <= 1
 0 <= x(80)#80 <= 1
 0 <= x(81)#81 <= 1
 0 <= x(82)#82 <= 1
 0 <= x(83)#83 <= 1
 0 <= x(84)#84 <= 1
 0 <= x(85)#85 <= 1
 0 <= x(86)#86 <= 1
 0 <= x(87)#87 <= 1
 0 <= x(88)#88 <= 1
 0 <= x(89)#89 <= 1
 0 <= x(90)#90 <= 1
 0 <= x(91)#91 <= 1
 0 <= x(92)#92 <= 1
 0 <= x(93)#93 <= 1
 0 <= x(94)#94 <= 1
 0 <= x(95)#95 <= 1
 0 <= x(96)#96 <= 1
 0 <= x(97)#97 <= 1
 0 <= x(98)#98 <= 1
 0 <= x(99)#99 <= 1
Generals
 x(0)#0  x(1)#1  x(2)#2  x(3)#3  x(4)#4  x(5)#5  x(6)#6  x(7)#7  x(8)#8 
 x(9)#9  x(10)#10  x(11)#11  x(12)#12  x(13)#13  x(14)#14  x(15)#15  x(16)#16 
 x(17)#17  x(18)#18  x(19)#19  x(20)#20  x(21)#21  x(22)#22  x(23)#23 
 x(24)#24  x(25)#25  x(26)#26  x(27)#27  x(28)#28  x(29)#29  x(30)#30 
 x(31)#31  x(32)#32  x(33)#33  x(34)#34  x(35)#35  x(36)#36  x(37)#37 
 x(38)#38  x(39)#39  x(40)#40  x(41)#41  x(42)#42  x(43)#43  x(44)#44 
 x(45)#45  x(46)#46  x(47)#47  x(48)#48  x(49)#49  x(50)#50  x(51)#51 
 x(52)#52  x(53)#53  x(54)#54  x(55)#55  x(56)#56  x(57)#57  x(58)#58 
 x(59)#59  x(60)#60  x(61)#61  x(62)#62  x(63)#63  x(64)#64  x(65)#65 
 x(66)#66  x(67)#67  x(68)#68  x(69)#69  x(70)#70  x(71)#71  x(72)#72 
 x(73)#73  x(74)#74  x(75)#75  x(76)#76  x(77)#77  x(78)#78  x(79)#79 
 x(80)#80  x(81)#81  x(82)#82  x(83)#83  x(84)#84  x(85)#85  x(86)#86 
 x(87)#87  x(88)#88  x(89)#89  x(90)#90  x(91)#91  x(92)#92  x(93)#93 
 x(94)#94  x(95)#95  x(96)#96  x(97)#97  x(98)#98  x(99)#99 
End
